nK = 3291;
nT = 8;
nI = 21;
L = 35;
TT = 669;
np = 1;
nc = 3;
b = [39, 20, 30, 46, 37, 38, 28, 50, 51, 53, 26, 42, 42, 53, 36, 56, 56, 30, 47, 32, 55];
d = [102, 67, 84, 124, 114, 131, 118, 93, 130, 89, 111, 124, 82, 143, 99, 93, 131, 134, 118, 111, 142];
m = [1.1, 1.9, 2.2, 1, 2.2, 2.5, 1.2, 1.6, 1.8, 2.3, 2.1, 1.2, 2.4, 1.2, 2.5, 2.1, 1.5, 1.4, 1.2, 1.3, 2.3];
pt = [0.2, 0.22, 0.29, 0.21, 0.23, 0.28, 0.29, 0.34];
st = [10.8, 9.24, 15.95, 11.55, 11.96, 11.76, 11.89, 15.3];
arc = {<1, 0, 1, 1, 0, 0, 0, [1, 1, 1, 1, 1, 1, 1, 1]>, <2, 1, 2, 1, 0, 0, 0, [1, 1, 1, 1, 1, 1, 1, 1]>, <3, 2, 3, 1, 0, 0, 0, [1, 1, 1, 1, 1, 1, 1, 1]>, <4, 3, 4, 1, 0, 0, 0, [1, 1, 1, 1, 1, 1, 1, 1]>, <5, 4, 5, 1, 0, 0, 0, [1, 1, 1, 1, 1, 1, 1, 1]>, <6, 5, 6, 1, 0, 0, 0, [1, 1, 1, 1, 1, 1, 1, 1]>, <7, 6, 7, 1, 0, 0, 0, [1, 1, 1, 1, 1, 1, 1, 1]>, <8, 7, 8, 1, 0, 0, 0, [1, 1, 1, 1, 1, 1, 1, 1]>, <9, 8, 9, 1, 0, 0, 0, [1, 1, 1, 1, 1, 1, 1, 1]>, <10, 9, 10, 1, 0, 0, 0, [1, 1, 1, 1, 1, 1, 1, 1]>, <11, 10, 11, 1, 0, 0, 0, [1, 1, 1, 1, 1, 1, 1, 1]>, <12, 11, 12, 1, 0, 0, 0, [1, 1, 1, 1, 1, 1, 1, 1]>, <13, 12, 13, 1, 0, 0, 0, [1, 1, 1, 1, 1, 1, 1, 1]>, <14, 13, 14, 1, 0, 0, 0, [1, 1, 1, 1, 1, 1, 1, 1]>, <15, 14, 15, 1, 0, 0, 0, [1, 1, 1, 1, 1, 1, 1, 1]>, <16, 15, 16, 1, 0, 0, 0, [1, 1, 1, 1, 1, 1, 1, 1]>, <17, 16, 17, 1, 0, 0, 0, [1, 1, 1, 1, 1, 1, 1, 1]>, <18, 17, 18, 1, 0, 0, 0, [1, 1, 1, 1, 1, 1, 1, 1]>, <19, 18, 19, 1, 0, 0, 0, [1, 1, 1, 1, 1, 1, 1, 1]>, <20, 19, 20, 1, 0, 0, 0, [1, 1, 1, 1, 1, 1, 1, 1]>, <21, 20, 21, 1, 0, 0, 0, [1, 1, 1, 1, 1, 1, 1, 1]>, <22, 21, 22, 1, 0, 0, 0, [1, 1, 1, 1, 1, 1, 1, 1]>, <23, 22, 23, 1, 0, 0, 0, [1, 1, 1, 1, 1, 1, 1, 1]>, <24, 23, 24, 1, 0, 0, 0, [1, 1, 1, 1, 1, 1, 1, 1]>, <25, 24, 25, 1, 0, 0, 0, [1, 1, 1, 1, 1, 1, 1, 1]>, <26, 25, 26, 1, 0, 0, 0, [1, 1, 1, 1, 1, 1, 1, 1]>, <27, 26, 27, 1, 0, 0, 0, [1, 1, 1, 1, 1, 1, 1, 1]>, <28, 27, 28, 1, 0, 0, 0, [1, 1, 1, 1, 1, 1, 1, 1]>, <29, 28, 29, 1, 0, 0, 0, [1, 1, 1, 1, 1, 1, 1, 1]>, <30, 29, 30, 1, 0, 0, 0, [1, 1, 1, 1, 1, 1, 1, 1]>, <31, 30, 31, 1, 0, 0, 0, [1, 1, 1, 1, 1, 1, 1, 1]>, <32, 31, 32, 1, 0, 0, 0, [1, 1, 1, 1, 1, 1, 1, 1]>, <33, 32, 33, 1, 0, 0, 0, [1, 1, 1, 1, 1, 1, 1, 1]>, <34, 33, 34, 1, 0, 0, 0, [1, 1, 1, 1, 1, 1, 1, 1]>, <35, 34, 35, 1, 0, 0, 0, [1, 1, 1, 1, 1, 1, 1, 1]>, <36, 0, 22, 22, 1, 1, 0, [0, 0, 0, 0, 1, 1, 1, 1]>, <37, 1, 23, 22, 1, 1, 0, [0, 0, 0, 0, 1, 1, 1, 1]>, <38, 2, 24, 22, 1, 1, 0, [0, 0, 0, 0, 1, 1, 1, 1]>, <39, 3, 25, 22, 1, 1, 0, [0, 0, 0, 0, 1, 1, 1, 1]>, <40, 4, 26, 22, 1, 1, 0, [0, 0, 0, 0, 1, 1, 1, 1]>, <41, 5, 27, 22, 1, 1, 0, [0, 0, 0, 0, 1, 1, 1, 1]>, <42, 6, 28, 22, 1, 1, 0, [0, 0, 0, 0, 1, 1, 1, 1]>, <43, 7, 29, 22, 1, 1, 0, [0, 0, 0, 0, 1, 1, 1, 1]>, <44, 8, 30, 22, 1, 1, 0, [0, 0, 0, 0, 1, 1, 1, 1]>, <45, 9, 31, 22, 1, 1, 0, [0, 0, 0, 0, 1, 1, 1, 1]>, <46, 10, 32, 22, 1, 1, 0, [0, 0, 0, 0, 1, 1, 1, 1]>, <47, 11, 33, 22, 1, 1, 0, [0, 0, 0, 0, 1, 1, 1, 1]>, <48, 12, 34, 22, 1, 1, 0, [0, 0, 0, 0, 1, 1, 1, 1]>, <49, 13, 35, 22, 1, 1, 0, [0, 0, 0, 0, 1, 1, 1, 1]>, <50, 0, 19, 19, 2, 0, 1, [1, 1, 1, 1, 0, 0, 0, 0]>, <51, 1, 20, 19, 2, 0, 1, [1, 1, 1, 1, 0, 0, 0, 0]>, <52, 2, 21, 19, 2, 0, 1, [1, 1, 1, 1, 0, 0, 0, 0]>, <53, 3, 22, 19, 2, 0, 1, [1, 1, 1, 1, 0, 0, 0, 0]>, <54, 4, 23, 19, 2, 0, 1, [1, 1, 1, 1, 0, 0, 0, 0]>, <55, 5, 24, 19, 2, 0, 1, [1, 1, 1, 1, 0, 0, 0, 0]>, <56, 6, 25, 19, 2, 0, 1, [1, 1, 1, 1, 0, 0, 0, 0]>, <57, 7, 26, 19, 2, 0, 1, [1, 1, 1, 1, 0, 0, 0, 0]>, <58, 8, 27, 19, 2, 0, 1, [1, 1, 1, 1, 0, 0, 0, 0]>, <59, 9, 28, 19, 2, 0, 1, [1, 1, 1, 1, 0, 0, 0, 0]>, <60, 10, 29, 19, 2, 0, 1, [1, 1, 1, 1, 0, 0, 0, 0]>, <61, 11, 30, 19, 2, 0, 1, [1, 1, 1, 1, 0, 0, 0, 0]>, <62, 12, 31, 19, 2, 0, 1, [1, 1, 1, 1, 0, 0, 0, 0]>, <63, 13, 32, 19, 2, 0, 1, [1, 1, 1, 1, 0, 0, 0, 0]>, <64, 14, 33, 19, 2, 0, 1, [1, 1, 1, 1, 0, 0, 0, 0]>, <65, 15, 34, 19, 2, 0, 1, [1, 1, 1, 1, 0, 0, 0, 0]>, <66, 16, 35, 19, 2, 0, 1, [1, 1, 1, 1, 0, 0, 0, 0]>, <67, 0, 18, 18, 3, 0, 0, [0, 0, 0, 0, 1, 1, 1, 1]>, <68, 1, 19, 18, 3, 0, 0, [0, 0, 0, 0, 1, 1, 1, 1]>, <69, 2, 20, 18, 3, 0, 0, [0, 0, 0, 0, 1, 1, 1, 1]>, <70, 3, 21, 18, 3, 0, 0, [0, 0, 0, 0, 1, 1, 1, 1]>, <71, 4, 22, 18, 3, 0, 0, [0, 0, 0, 0, 1, 1, 1, 1]>, <72, 5, 23, 18, 3, 0, 0, [0, 0, 0, 0, 1, 1, 1, 1]>, <73, 6, 24, 18, 3, 0, 0, [0, 0, 0, 0, 1, 1, 1, 1]>, <74, 8, 26, 18, 3, 0, 0, [0, 0, 0, 0, 1, 1, 1, 1]>, <75, 9, 27, 18, 3, 0, 0, [0, 0, 0, 0, 1, 1, 1, 1]>, <76, 10, 28, 18, 3, 0, 0, [0, 0, 0, 0, 1, 1, 1, 1]>, <77, 11, 29, 18, 3, 0, 0, [0, 0, 0, 0, 1, 1, 1, 1]>, <78, 12, 30, 18, 3, 0, 0, [0, 0, 0, 0, 1, 1, 1, 1]>, <79, 13, 31, 18, 3, 0, 0, [0, 0, 0, 0, 1, 1, 1, 1]>, <80, 14, 32, 18, 3, 0, 0, [0, 0, 0, 0, 1, 1, 1, 1]>, <81, 15, 33, 18, 3, 0, 0, [0, 0, 0, 0, 1, 1, 1, 1]>, <82, 16, 34, 18, 3, 0, 0, [0, 0, 0, 0, 1, 1, 1, 1]>, <83, 17, 35, 18, 3, 0, 0, [0, 0, 0, 0, 1, 1, 1, 1]>, <84, 0, 20, 20, 4, 0, 1, [0, 0, 0, 1, 1, 1, 1, 0]>, <85, 1, 21, 20, 4, 0, 1, [0, 0, 0, 1, 1, 1, 1, 0]>, <86, 2, 22, 20, 4, 0, 1, [0, 0, 0, 1, 1, 1, 1, 0]>, <87, 3, 23, 20, 4, 0, 1, [0, 0, 0, 1, 1, 1, 1, 0]>, <88, 4, 24, 20, 4, 0, 1, [0, 0, 0, 1, 1, 1, 1, 0]>, <89, 5, 25, 20, 4, 0, 1, [0, 0, 0, 1, 1, 1, 1, 0]>, <90, 6, 26, 20, 4, 0, 1, [0, 0, 0, 1, 1, 1, 1, 0]>, <91, 7, 27, 20, 4, 0, 1, [0, 0, 0, 1, 1, 1, 1, 0]>, <92, 8, 28, 20, 4, 0, 1, [0, 0, 0, 1, 1, 1, 1, 0]>, <93, 9, 29, 20, 4, 0, 1, [0, 0, 0, 1, 1, 1, 1, 0]>, <94, 10, 30, 20, 4, 0, 1, [0, 0, 0, 1, 1, 1, 1, 0]>, <95, 11, 31, 20, 4, 0, 1, [0, 0, 0, 1, 1, 1, 1, 0]>, <96, 12, 32, 20, 4, 0, 1, [0, 0, 0, 1, 1, 1, 1, 0]>, <97, 13, 33, 20, 4, 0, 1, [0, 0, 0, 1, 1, 1, 1, 0]>, <98, 14, 34, 20, 4, 0, 1, [0, 0, 0, 1, 1, 1, 1, 0]>, <99, 15, 35, 20, 4, 0, 1, [0, 0, 0, 1, 1, 1, 1, 0]>, <100, 0, 18, 18, 5, 0, 1, [1, 1, 0, 0, 0, 0, 1, 1]>, <101, 1, 19, 18, 5, 0, 1, [1, 1, 0, 0, 0, 0, 1, 1]>, <102, 2, 20, 18, 5, 0, 1, [1, 1, 0, 0, 0, 0, 1, 1]>, <103, 3, 21, 18, 5, 0, 1, [1, 1, 0, 0, 0, 0, 1, 1]>, <104, 4, 22, 18, 5, 0, 1, [1, 1, 0, 0, 0, 0, 1, 1]>, <105, 5, 23, 18, 5, 0, 1, [1, 1, 0, 0, 0, 0, 1, 1]>, <106, 6, 24, 18, 5, 0, 1, [1, 1, 0, 0, 0, 0, 1, 1]>, <107, 8, 26, 18, 5, 0, 1, [1, 1, 0, 0, 0, 0, 1, 1]>, <108, 9, 27, 18, 5, 0, 1, [1, 1, 0, 0, 0, 0, 1, 1]>, <109, 10, 28, 18, 5, 0, 1, [1, 1, 0, 0, 0, 0, 1, 1]>, <110, 11, 29, 18, 5, 0, 1, [1, 1, 0, 0, 0, 0, 1, 1]>, <111, 12, 30, 18, 5, 0, 1, [1, 1, 0, 0, 0, 0, 1, 1]>, <112, 13, 31, 18, 5, 0, 1, [1, 1, 0, 0, 0, 0, 1, 1]>, <113, 14, 32, 18, 5, 0, 1, [1, 1, 0, 0, 0, 0, 1, 1]>, <114, 15, 33, 18, 5, 0, 1, [1, 1, 0, 0, 0, 0, 1, 1]>, <115, 16, 34, 18, 5, 0, 1, [1, 1, 0, 0, 0, 0, 1, 1]>, <116, 17, 35, 18, 5, 0, 1, [1, 1, 0, 0, 0, 0, 1, 1]>, <117, 0, 17, 17, 6, 0, 0, [1, 1, 1, 0, 0, 0, 0, 1]>, <118, 1, 18, 17, 6, 0, 0, [1, 1, 1, 0, 0, 0, 0, 1]>, <119, 2, 19, 17, 6, 0, 0, [1, 1, 1, 0, 0, 0, 0, 1]>, <120, 3, 20, 17, 6, 0, 0, [1, 1, 1, 0, 0, 0, 0, 1]>, <121, 4, 21, 17, 6, 0, 0, [1, 1, 1, 0, 0, 0, 0, 1]>, <122, 5, 22, 17, 6, 0, 0, [1, 1, 1, 0, 0, 0, 0, 1]>, <123, 6, 23, 17, 6, 0, 0, [1, 1, 1, 0, 0, 0, 0, 1]>, <124, 9, 26, 17, 6, 0, 0, [1, 1, 1, 0, 0, 0, 0, 1]>, <125, 10, 27, 17, 6, 0, 0, [1, 1, 1, 0, 0, 0, 0, 1]>, <126, 11, 28, 17, 6, 0, 0, [1, 1, 1, 0, 0, 0, 0, 1]>, <127, 12, 29, 17, 6, 0, 0, [1, 1, 1, 0, 0, 0, 0, 1]>, <128, 13, 30, 17, 6, 0, 0, [1, 1, 1, 0, 0, 0, 0, 1]>, <129, 14, 31, 17, 6, 0, 0, [1, 1, 1, 0, 0, 0, 0, 1]>, <130, 15, 32, 17, 6, 0, 0, [1, 1, 1, 0, 0, 0, 0, 1]>, <131, 16, 33, 17, 6, 0, 0, [1, 1, 1, 0, 0, 0, 0, 1]>, <132, 17, 34, 17, 6, 0, 0, [1, 1, 1, 0, 0, 0, 0, 1]>, <133, 18, 35, 17, 6, 0, 0, [1, 1, 1, 0, 0, 0, 0, 1]>, <134, 1, 17, 16, 7, 0, 0, [0, 0, 1, 1, 1, 1, 0, 0]>, <135, 2, 18, 16, 7, 0, 0, [0, 0, 1, 1, 1, 1, 0, 0]>, <136, 3, 19, 16, 7, 0, 0, [0, 0, 1, 1, 1, 1, 0, 0]>, <137, 4, 20, 16, 7, 0, 0, [0, 0, 1, 1, 1, 1, 0, 0]>, <138, 5, 21, 16, 7, 0, 0, [0, 0, 1, 1, 1, 1, 0, 0]>, <139, 6, 22, 16, 7, 0, 0, [0, 0, 1, 1, 1, 1, 0, 0]>, <140, 10, 26, 16, 7, 0, 0, [0, 0, 1, 1, 1, 1, 0, 0]>, <141, 11, 27, 16, 7, 0, 0, [0, 0, 1, 1, 1, 1, 0, 0]>, <142, 12, 28, 16, 7, 0, 0, [0, 0, 1, 1, 1, 1, 0, 0]>, <143, 13, 29, 16, 7, 0, 0, [0, 0, 1, 1, 1, 1, 0, 0]>, <144, 14, 30, 16, 7, 0, 0, [0, 0, 1, 1, 1, 1, 0, 0]>, <145, 15, 31, 16, 7, 0, 0, [0, 0, 1, 1, 1, 1, 0, 0]>, <146, 16, 32, 16, 7, 0, 0, [0, 0, 1, 1, 1, 1, 0, 0]>, <147, 17, 33, 16, 7, 0, 0, [0, 0, 1, 1, 1, 1, 0, 0]>, <148, 18, 34, 16, 7, 0, 0, [0, 0, 1, 1, 1, 1, 0, 0]>, <149, 19, 35, 16, 7, 0, 0, [0, 0, 1, 1, 1, 1, 0, 0]>, <150, 0, 19, 19, 8, 0, 0, [0, 0, 0, 1, 1, 1, 1, 0]>, <151, 1, 20, 19, 8, 0, 0, [0, 0, 0, 1, 1, 1, 1, 0]>, <152, 2, 21, 19, 8, 0, 0, [0, 0, 0, 1, 1, 1, 1, 0]>, <153, 3, 22, 19, 8, 0, 0, [0, 0, 0, 1, 1, 1, 1, 0]>, <154, 4, 23, 19, 8, 0, 0, [0, 0, 0, 1, 1, 1, 1, 0]>, <155, 5, 24, 19, 8, 0, 0, [0, 0, 0, 1, 1, 1, 1, 0]>, <156, 6, 25, 19, 8, 0, 0, [0, 0, 0, 1, 1, 1, 1, 0]>, <157, 7, 26, 19, 8, 0, 0, [0, 0, 0, 1, 1, 1, 1, 0]>, <158, 8, 27, 19, 8, 0, 0, [0, 0, 0, 1, 1, 1, 1, 0]>, <159, 9, 28, 19, 8, 0, 0, [0, 0, 0, 1, 1, 1, 1, 0]>, <160, 10, 29, 19, 8, 0, 0, [0, 0, 0, 1, 1, 1, 1, 0]>, <161, 11, 30, 19, 8, 0, 0, [0, 0, 0, 1, 1, 1, 1, 0]>, <162, 12, 31, 19, 8, 0, 0, [0, 0, 0, 1, 1, 1, 1, 0]>, <163, 13, 32, 19, 8, 0, 0, [0, 0, 0, 1, 1, 1, 1, 0]>, <164, 14, 33, 19, 8, 0, 0, [0, 0, 0, 1, 1, 1, 1, 0]>, <165, 15, 34, 19, 8, 0, 0, [0, 0, 0, 1, 1, 1, 1, 0]>, <166, 16, 35, 19, 8, 0, 0, [0, 0, 0, 1, 1, 1, 1, 0]>, <167, 0, 22, 22, 9, 0, 0, [1, 1, 0, 0, 0, 0, 1, 1]>, <168, 1, 23, 22, 9, 0, 0, [1, 1, 0, 0, 0, 0, 1, 1]>, <169, 2, 24, 22, 9, 0, 0, [1, 1, 0, 0, 0, 0, 1, 1]>, <170, 3, 25, 22, 9, 0, 0, [1, 1, 0, 0, 0, 0, 1, 1]>, <171, 4, 26, 22, 9, 0, 0, [1, 1, 0, 0, 0, 0, 1, 1]>, <172, 5, 27, 22, 9, 0, 0, [1, 1, 0, 0, 0, 0, 1, 1]>, <173, 6, 28, 22, 9, 0, 0, [1, 1, 0, 0, 0, 0, 1, 1]>, <174, 7, 29, 22, 9, 0, 0, [1, 1, 0, 0, 0, 0, 1, 1]>, <175, 8, 30, 22, 9, 0, 0, [1, 1, 0, 0, 0, 0, 1, 1]>, <176, 9, 31, 22, 9, 0, 0, [1, 1, 0, 0, 0, 0, 1, 1]>, <177, 10, 32, 22, 9, 0, 0, [1, 1, 0, 0, 0, 0, 1, 1]>, <178, 11, 33, 22, 9, 0, 0, [1, 1, 0, 0, 0, 0, 1, 1]>, <179, 12, 34, 22, 9, 0, 0, [1, 1, 0, 0, 0, 0, 1, 1]>, <180, 13, 35, 22, 9, 0, 0, [1, 1, 0, 0, 0, 0, 1, 1]>, <181, 0, 20, 20, 10, 0, 0, [0, 0, 0, 1, 1, 1, 1, 0]>, <182, 1, 21, 20, 10, 0, 0, [0, 0, 0, 1, 1, 1, 1, 0]>, <183, 2, 22, 20, 10, 0, 0, [0, 0, 0, 1, 1, 1, 1, 0]>, <184, 3, 23, 20, 10, 0, 0, [0, 0, 0, 1, 1, 1, 1, 0]>, <185, 4, 24, 20, 10, 0, 0, [0, 0, 0, 1, 1, 1, 1, 0]>, <186, 5, 25, 20, 10, 0, 0, [0, 0, 0, 1, 1, 1, 1, 0]>, <187, 6, 26, 20, 10, 0, 0, [0, 0, 0, 1, 1, 1, 1, 0]>, <188, 7, 27, 20, 10, 0, 0, [0, 0, 0, 1, 1, 1, 1, 0]>, <189, 8, 28, 20, 10, 0, 0, [0, 0, 0, 1, 1, 1, 1, 0]>, <190, 9, 29, 20, 10, 0, 0, [0, 0, 0, 1, 1, 1, 1, 0]>, <191, 10, 30, 20, 10, 0, 0, [0, 0, 0, 1, 1, 1, 1, 0]>, <192, 11, 31, 20, 10, 0, 0, [0, 0, 0, 1, 1, 1, 1, 0]>, <193, 12, 32, 20, 10, 0, 0, [0, 0, 0, 1, 1, 1, 1, 0]>, <194, 13, 33, 20, 10, 0, 0, [0, 0, 0, 1, 1, 1, 1, 0]>, <195, 14, 34, 20, 10, 0, 0, [0, 0, 0, 1, 1, 1, 1, 0]>, <196, 15, 35, 20, 10, 0, 0, [0, 0, 0, 1, 1, 1, 1, 0]>, <197, 0, 19, 19, 11, 1, 0, [0, 0, 1, 1, 1, 1, 0, 0]>, <198, 1, 20, 19, 11, 1, 0, [0, 0, 1, 1, 1, 1, 0, 0]>, <199, 2, 21, 19, 11, 1, 0, [0, 0, 1, 1, 1, 1, 0, 0]>, <200, 3, 22, 19, 11, 1, 0, [0, 0, 1, 1, 1, 1, 0, 0]>, <201, 4, 23, 19, 11, 1, 0, [0, 0, 1, 1, 1, 1, 0, 0]>, <202, 5, 24, 19, 11, 1, 0, [0, 0, 1, 1, 1, 1, 0, 0]>, <203, 6, 25, 19, 11, 1, 0, [0, 0, 1, 1, 1, 1, 0, 0]>, <204, 7, 26, 19, 11, 1, 0, [0, 0, 1, 1, 1, 1, 0, 0]>, <205, 8, 27, 19, 11, 1, 0, [0, 0, 1, 1, 1, 1, 0, 0]>, <206, 9, 28, 19, 11, 1, 0, [0, 0, 1, 1, 1, 1, 0, 0]>, <207, 10, 29, 19, 11, 1, 0, [0, 0, 1, 1, 1, 1, 0, 0]>, <208, 11, 30, 19, 11, 1, 0, [0, 0, 1, 1, 1, 1, 0, 0]>, <209, 12, 31, 19, 11, 1, 0, [0, 0, 1, 1, 1, 1, 0, 0]>, <210, 13, 32, 19, 11, 1, 0, [0, 0, 1, 1, 1, 1, 0, 0]>, <211, 14, 33, 19, 11, 1, 0, [0, 0, 1, 1, 1, 1, 0, 0]>, <212, 15, 34, 19, 11, 1, 0, [0, 0, 1, 1, 1, 1, 0, 0]>, <213, 16, 35, 19, 11, 1, 0, [0, 0, 1, 1, 1, 1, 0, 0]>, <214, 0, 22, 22, 12, 0, 1, [1, 1, 0, 0, 0, 0, 1, 1]>, <215, 1, 23, 22, 12, 0, 1, [1, 1, 0, 0, 0, 0, 1, 1]>, <216, 2, 24, 22, 12, 0, 1, [1, 1, 0, 0, 0, 0, 1, 1]>, <217, 3, 25, 22, 12, 0, 1, [1, 1, 0, 0, 0, 0, 1, 1]>, <218, 4, 26, 22, 12, 0, 1, [1, 1, 0, 0, 0, 0, 1, 1]>, <219, 5, 27, 22, 12, 0, 1, [1, 1, 0, 0, 0, 0, 1, 1]>, <220, 6, 28, 22, 12, 0, 1, [1, 1, 0, 0, 0, 0, 1, 1]>, <221, 7, 29, 22, 12, 0, 1, [1, 1, 0, 0, 0, 0, 1, 1]>, <222, 8, 30, 22, 12, 0, 1, [1, 1, 0, 0, 0, 0, 1, 1]>, <223, 9, 31, 22, 12, 0, 1, [1, 1, 0, 0, 0, 0, 1, 1]>, <224, 10, 32, 22, 12, 0, 1, [1, 1, 0, 0, 0, 0, 1, 1]>, <225, 11, 33, 22, 12, 0, 1, [1, 1, 0, 0, 0, 0, 1, 1]>, <226, 12, 34, 22, 12, 0, 1, [1, 1, 0, 0, 0, 0, 1, 1]>, <227, 13, 35, 22, 12, 0, 1, [1, 1, 0, 0, 0, 0, 1, 1]>, <228, 0, 20, 20, 13, 0, 1, [0, 1, 1, 1, 1, 0, 0, 0]>, <229, 1, 21, 20, 13, 0, 1, [0, 1, 1, 1, 1, 0, 0, 0]>, <230, 2, 22, 20, 13, 0, 1, [0, 1, 1, 1, 1, 0, 0, 0]>, <231, 3, 23, 20, 13, 0, 1, [0, 1, 1, 1, 1, 0, 0, 0]>, <232, 4, 24, 20, 13, 0, 1, [0, 1, 1, 1, 1, 0, 0, 0]>, <233, 5, 25, 20, 13, 0, 1, [0, 1, 1, 1, 1, 0, 0, 0]>, <234, 6, 26, 20, 13, 0, 1, [0, 1, 1, 1, 1, 0, 0, 0]>, <235, 7, 27, 20, 13, 0, 1, [0, 1, 1, 1, 1, 0, 0, 0]>, <236, 8, 28, 20, 13, 0, 1, [0, 1, 1, 1, 1, 0, 0, 0]>, <237, 9, 29, 20, 13, 0, 1, [0, 1, 1, 1, 1, 0, 0, 0]>, <238, 10, 30, 20, 13, 0, 1, [0, 1, 1, 1, 1, 0, 0, 0]>, <239, 11, 31, 20, 13, 0, 1, [0, 1, 1, 1, 1, 0, 0, 0]>, <240, 12, 32, 20, 13, 0, 1, [0, 1, 1, 1, 1, 0, 0, 0]>, <241, 13, 33, 20, 13, 0, 1, [0, 1, 1, 1, 1, 0, 0, 0]>, <242, 14, 34, 20, 13, 0, 1, [0, 1, 1, 1, 1, 0, 0, 0]>, <243, 15, 35, 20, 13, 0, 1, [0, 1, 1, 1, 1, 0, 0, 0]>, <244, 0, 19, 19, 14, 0, 0, [0, 0, 0, 1, 1, 1, 1, 0]>, <245, 1, 20, 19, 14, 0, 0, [0, 0, 0, 1, 1, 1, 1, 0]>, <246, 2, 21, 19, 14, 0, 0, [0, 0, 0, 1, 1, 1, 1, 0]>, <247, 3, 22, 19, 14, 0, 0, [0, 0, 0, 1, 1, 1, 1, 0]>, <248, 4, 23, 19, 14, 0, 0, [0, 0, 0, 1, 1, 1, 1, 0]>, <249, 5, 24, 19, 14, 0, 0, [0, 0, 0, 1, 1, 1, 1, 0]>, <250, 6, 25, 19, 14, 0, 0, [0, 0, 0, 1, 1, 1, 1, 0]>, <251, 7, 26, 19, 14, 0, 0, [0, 0, 0, 1, 1, 1, 1, 0]>, <252, 8, 27, 19, 14, 0, 0, [0, 0, 0, 1, 1, 1, 1, 0]>, <253, 9, 28, 19, 14, 0, 0, [0, 0, 0, 1, 1, 1, 1, 0]>, <254, 10, 29, 19, 14, 0, 0, [0, 0, 0, 1, 1, 1, 1, 0]>, <255, 11, 30, 19, 14, 0, 0, [0, 0, 0, 1, 1, 1, 1, 0]>, <256, 12, 31, 19, 14, 0, 0, [0, 0, 0, 1, 1, 1, 1, 0]>, <257, 13, 32, 19, 14, 0, 0, [0, 0, 0, 1, 1, 1, 1, 0]>, <258, 14, 33, 19, 14, 0, 0, [0, 0, 0, 1, 1, 1, 1, 0]>, <259, 15, 34, 19, 14, 0, 0, [0, 0, 0, 1, 1, 1, 1, 0]>, <260, 16, 35, 19, 14, 0, 0, [0, 0, 0, 1, 1, 1, 1, 0]>, <261, 0, 18, 18, 15, 0, 0, [1, 0, 0, 0, 0, 1, 1, 1]>, <262, 1, 19, 18, 15, 0, 0, [1, 0, 0, 0, 0, 1, 1, 1]>, <263, 2, 20, 18, 15, 0, 0, [1, 0, 0, 0, 0, 1, 1, 1]>, <264, 3, 21, 18, 15, 0, 0, [1, 0, 0, 0, 0, 1, 1, 1]>, <265, 4, 22, 18, 15, 0, 0, [1, 0, 0, 0, 0, 1, 1, 1]>, <266, 5, 23, 18, 15, 0, 0, [1, 0, 0, 0, 0, 1, 1, 1]>, <267, 6, 24, 18, 15, 0, 0, [1, 0, 0, 0, 0, 1, 1, 1]>, <268, 8, 26, 18, 15, 0, 0, [1, 0, 0, 0, 0, 1, 1, 1]>, <269, 9, 27, 18, 15, 0, 0, [1, 0, 0, 0, 0, 1, 1, 1]>, <270, 10, 28, 18, 15, 0, 0, [1, 0, 0, 0, 0, 1, 1, 1]>, <271, 11, 29, 18, 15, 0, 0, [1, 0, 0, 0, 0, 1, 1, 1]>, <272, 12, 30, 18, 15, 0, 0, [1, 0, 0, 0, 0, 1, 1, 1]>, <273, 13, 31, 18, 15, 0, 0, [1, 0, 0, 0, 0, 1, 1, 1]>, <274, 14, 32, 18, 15, 0, 0, [1, 0, 0, 0, 0, 1, 1, 1]>, <275, 15, 33, 18, 15, 0, 0, [1, 0, 0, 0, 0, 1, 1, 1]>, <276, 16, 34, 18, 15, 0, 0, [1, 0, 0, 0, 0, 1, 1, 1]>, <277, 17, 35, 18, 15, 0, 0, [1, 0, 0, 0, 0, 1, 1, 1]>, <278, 0, 21, 21, 16, 0, 1, [0, 0, 1, 1, 1, 1, 0, 0]>, <279, 1, 22, 21, 16, 0, 1, [0, 0, 1, 1, 1, 1, 0, 0]>, <280, 2, 23, 21, 16, 0, 1, [0, 0, 1, 1, 1, 1, 0, 0]>, <281, 3, 24, 21, 16, 0, 1, [0, 0, 1, 1, 1, 1, 0, 0]>, <282, 4, 25, 21, 16, 0, 1, [0, 0, 1, 1, 1, 1, 0, 0]>, <283, 5, 26, 21, 16, 0, 1, [0, 0, 1, 1, 1, 1, 0, 0]>, <284, 6, 27, 21, 16, 0, 1, [0, 0, 1, 1, 1, 1, 0, 0]>, <285, 7, 28, 21, 16, 0, 1, [0, 0, 1, 1, 1, 1, 0, 0]>, <286, 8, 29, 21, 16, 0, 1, [0, 0, 1, 1, 1, 1, 0, 0]>, <287, 9, 30, 21, 16, 0, 1, [0, 0, 1, 1, 1, 1, 0, 0]>, <288, 10, 31, 21, 16, 0, 1, [0, 0, 1, 1, 1, 1, 0, 0]>, <289, 11, 32, 21, 16, 0, 1, [0, 0, 1, 1, 1, 1, 0, 0]>, <290, 12, 33, 21, 16, 0, 1, [0, 0, 1, 1, 1, 1, 0, 0]>, <291, 13, 34, 21, 16, 0, 1, [0, 0, 1, 1, 1, 1, 0, 0]>, <292, 14, 35, 21, 16, 0, 1, [0, 0, 1, 1, 1, 1, 0, 0]>, <293, 0, 20, 20, 17, 0, 1, [1, 0, 0, 0, 0, 1, 1, 1]>, <294, 1, 21, 20, 17, 0, 1, [1, 0, 0, 0, 0, 1, 1, 1]>, <295, 2, 22, 20, 17, 0, 1, [1, 0, 0, 0, 0, 1, 1, 1]>, <296, 3, 23, 20, 17, 0, 1, [1, 0, 0, 0, 0, 1, 1, 1]>, <297, 4, 24, 20, 17, 0, 1, [1, 0, 0, 0, 0, 1, 1, 1]>, <298, 5, 25, 20, 17, 0, 1, [1, 0, 0, 0, 0, 1, 1, 1]>, <299, 6, 26, 20, 17, 0, 1, [1, 0, 0, 0, 0, 1, 1, 1]>, <300, 7, 27, 20, 17, 0, 1, [1, 0, 0, 0, 0, 1, 1, 1]>, <301, 8, 28, 20, 17, 0, 1, [1, 0, 0, 0, 0, 1, 1, 1]>, <302, 9, 29, 20, 17, 0, 1, [1, 0, 0, 0, 0, 1, 1, 1]>, <303, 10, 30, 20, 17, 0, 1, [1, 0, 0, 0, 0, 1, 1, 1]>, <304, 11, 31, 20, 17, 0, 1, [1, 0, 0, 0, 0, 1, 1, 1]>, <305, 12, 32, 20, 17, 0, 1, [1, 0, 0, 0, 0, 1, 1, 1]>, <306, 13, 33, 20, 17, 0, 1, [1, 0, 0, 0, 0, 1, 1, 1]>, <307, 14, 34, 20, 17, 0, 1, [1, 0, 0, 0, 0, 1, 1, 1]>, <308, 15, 35, 20, 17, 0, 1, [1, 0, 0, 0, 0, 1, 1, 1]>, <309, 0, 18, 18, 18, 0, 1, [1, 1, 1, 0, 0, 0, 0, 1]>, <310, 1, 19, 18, 18, 0, 1, [1, 1, 1, 0, 0, 0, 0, 1]>, <311, 2, 20, 18, 18, 0, 1, [1, 1, 1, 0, 0, 0, 0, 1]>, <312, 3, 21, 18, 18, 0, 1, [1, 1, 1, 0, 0, 0, 0, 1]>, <313, 4, 22, 18, 18, 0, 1, [1, 1, 1, 0, 0, 0, 0, 1]>, <314, 5, 23, 18, 18, 0, 1, [1, 1, 1, 0, 0, 0, 0, 1]>, <315, 6, 24, 18, 18, 0, 1, [1, 1, 1, 0, 0, 0, 0, 1]>, <316, 8, 26, 18, 18, 0, 1, [1, 1, 1, 0, 0, 0, 0, 1]>, <317, 9, 27, 18, 18, 0, 1, [1, 1, 1, 0, 0, 0, 0, 1]>, <318, 10, 28, 18, 18, 0, 1, [1, 1, 1, 0, 0, 0, 0, 1]>, <319, 11, 29, 18, 18, 0, 1, [1, 1, 1, 0, 0, 0, 0, 1]>, <320, 12, 30, 18, 18, 0, 1, [1, 1, 1, 0, 0, 0, 0, 1]>, <321, 13, 31, 18, 18, 0, 1, [1, 1, 1, 0, 0, 0, 0, 1]>, <322, 14, 32, 18, 18, 0, 1, [1, 1, 1, 0, 0, 0, 0, 1]>, <323, 15, 33, 18, 18, 0, 1, [1, 1, 1, 0, 0, 0, 0, 1]>, <324, 16, 34, 18, 18, 0, 1, [1, 1, 1, 0, 0, 0, 0, 1]>, <325, 17, 35, 18, 18, 0, 1, [1, 1, 1, 0, 0, 0, 0, 1]>, <326, 0, 19, 19, 19, 0, 0, [0, 1, 1, 1, 1, 0, 0, 0]>, <327, 1, 20, 19, 19, 0, 0, [0, 1, 1, 1, 1, 0, 0, 0]>, <328, 2, 21, 19, 19, 0, 0, [0, 1, 1, 1, 1, 0, 0, 0]>, <329, 3, 22, 19, 19, 0, 0, [0, 1, 1, 1, 1, 0, 0, 0]>, <330, 4, 23, 19, 19, 0, 0, [0, 1, 1, 1, 1, 0, 0, 0]>, <331, 5, 24, 19, 19, 0, 0, [0, 1, 1, 1, 1, 0, 0, 0]>, <332, 6, 25, 19, 19, 0, 0, [0, 1, 1, 1, 1, 0, 0, 0]>, <333, 7, 26, 19, 19, 0, 0, [0, 1, 1, 1, 1, 0, 0, 0]>, <334, 8, 27, 19, 19, 0, 0, [0, 1, 1, 1, 1, 0, 0, 0]>, <335, 9, 28, 19, 19, 0, 0, [0, 1, 1, 1, 1, 0, 0, 0]>, <336, 10, 29, 19, 19, 0, 0, [0, 1, 1, 1, 1, 0, 0, 0]>, <337, 11, 30, 19, 19, 0, 0, [0, 1, 1, 1, 1, 0, 0, 0]>, <338, 12, 31, 19, 19, 0, 0, [0, 1, 1, 1, 1, 0, 0, 0]>, <339, 13, 32, 19, 19, 0, 0, [0, 1, 1, 1, 1, 0, 0, 0]>, <340, 14, 33, 19, 19, 0, 0, [0, 1, 1, 1, 1, 0, 0, 0]>, <341, 15, 34, 19, 19, 0, 0, [0, 1, 1, 1, 1, 0, 0, 0]>, <342, 16, 35, 19, 19, 0, 0, [0, 1, 1, 1, 1, 0, 0, 0]>, <343, 0, 20, 20, 20, 0, 0, [1, 0, 0, 0, 0, 1, 1, 1]>, <344, 1, 21, 20, 20, 0, 0, [1, 0, 0, 0, 0, 1, 1, 1]>, <345, 2, 22, 20, 20, 0, 0, [1, 0, 0, 0, 0, 1, 1, 1]>, <346, 3, 23, 20, 20, 0, 0, [1, 0, 0, 0, 0, 1, 1, 1]>, <347, 4, 24, 20, 20, 0, 0, [1, 0, 0, 0, 0, 1, 1, 1]>, <348, 5, 25, 20, 20, 0, 0, [1, 0, 0, 0, 0, 1, 1, 1]>, <349, 6, 26, 20, 20, 0, 0, [1, 0, 0, 0, 0, 1, 1, 1]>, <350, 7, 27, 20, 20, 0, 0, [1, 0, 0, 0, 0, 1, 1, 1]>, <351, 8, 28, 20, 20, 0, 0, [1, 0, 0, 0, 0, 1, 1, 1]>, <352, 9, 29, 20, 20, 0, 0, [1, 0, 0, 0, 0, 1, 1, 1]>, <353, 10, 30, 20, 20, 0, 0, [1, 0, 0, 0, 0, 1, 1, 1]>, <354, 11, 31, 20, 20, 0, 0, [1, 0, 0, 0, 0, 1, 1, 1]>, <355, 12, 32, 20, 20, 0, 0, [1, 0, 0, 0, 0, 1, 1, 1]>, <356, 13, 33, 20, 20, 0, 0, [1, 0, 0, 0, 0, 1, 1, 1]>, <357, 14, 34, 20, 20, 0, 0, [1, 0, 0, 0, 0, 1, 1, 1]>, <358, 15, 35, 20, 20, 0, 0, [1, 0, 0, 0, 0, 1, 1, 1]>, <359, 0, 22, 22, 21, 0, 0, [0, 0, 0, 1, 1, 1, 1, 0]>, <360, 1, 23, 22, 21, 0, 0, [0, 0, 0, 1, 1, 1, 1, 0]>, <361, 2, 24, 22, 21, 0, 0, [0, 0, 0, 1, 1, 1, 1, 0]>, <362, 3, 25, 22, 21, 0, 0, [0, 0, 0, 1, 1, 1, 1, 0]>, <363, 4, 26, 22, 21, 0, 0, [0, 0, 0, 1, 1, 1, 1, 0]>, <364, 5, 27, 22, 21, 0, 0, [0, 0, 0, 1, 1, 1, 1, 0]>, <365, 6, 28, 22, 21, 0, 0, [0, 0, 0, 1, 1, 1, 1, 0]>, <366, 7, 29, 22, 21, 0, 0, [0, 0, 0, 1, 1, 1, 1, 0]>, <367, 8, 30, 22, 21, 0, 0, [0, 0, 0, 1, 1, 1, 1, 0]>, <368, 9, 31, 22, 21, 0, 0, [0, 0, 0, 1, 1, 1, 1, 0]>, <369, 10, 32, 22, 21, 0, 0, [0, 0, 0, 1, 1, 1, 1, 0]>, <370, 11, 33, 22, 21, 0, 0, [0, 0, 0, 1, 1, 1, 1, 0]>, <371, 12, 34, 22, 21, 0, 0, [0, 0, 0, 1, 1, 1, 1, 0]>, <372, 13, 35, 22, 21, 0, 0, [0, 0, 0, 1, 1, 1, 1, 0]>};
